<?xml version = "1.0" encoding="UTF-8" standalone="yes"?>
<CPLEXSolution version="1.2">
 <header
   problemName="testFile.lp"
   solutionName="incumbent"
   solutionIndex="-1"
   objectiveValue="30"
   solutionTypeValue="3"
   solutionTypeString="primal"
   solutionStatusValue="101"
   solutionStatusString="integer optimal solution"
   solutionMethodString="mip"
   primalFeasible="1"
   dualFeasible="1"
   MIPNodes="0"
   MIPIterations="1"
   writeLevel="1"/>
 <quality
   epInt="1.0000000000000001e-05"
   epRHS="9.9999999999999995e-07"
   maxIntInfeas="0"
   maxPrimalInfeas="0"
   maxX="100"
   maxSlack="200"/>
 <linearConstraints>
  <constraint name="c1" index="0" slack="0"/>
  <constraint name="c2" index="1" slack="0"/>
  <constraint name="c3" index="2" slack="0"/>
  <constraint name="c4" index="3" slack="0"/>
  <constraint name="c5" index="4" slack="0"/>
  <constraint name="c6" index="5" slack="0"/>
  <constraint name="c7" index="6" slack="-1"/>
  <constraint name="c8" index="7" slack="-1"/>
  <constraint name="c9" index="8" slack="-1"/>
  <constraint name="c10" index="9" slack="-1"/>
  <constraint name="c11" index="10" slack="0"/>
  <constraint name="c12" index="11" slack="0"/>
  <constraint name="c13" index="12" slack="0"/>
  <constraint name="c14" index="13" slack="0"/>
  <constraint name="c15" index="14" slack="0"/>
  <constraint name="c16" index="15" slack="0"/>
  <constraint name="c17" index="16" slack="0"/>
  <constraint name="c18" index="17" slack="0"/>
  <constraint name="c19" index="18" slack="0"/>
  <constraint name="c20" index="19" slack="0"/>
  <constraint name="c21" index="20" slack="0"/>
  <constraint name="c22" index="21" slack="0"/>
  <constraint name="c23" index="22" slack="-1"/>
  <constraint name="c24" index="23" slack="-1"/>
  <constraint name="c25" index="24" slack="-1"/>
  <constraint name="c26" index="25" slack="0"/>
  <constraint name="c27" index="26" slack="0"/>
  <constraint name="c28" index="27" slack="0"/>
  <constraint name="c29" index="28" slack="0"/>
  <constraint name="c30" index="29" slack="0"/>
  <constraint name="c31" index="30" slack="0"/>
  <constraint name="c32" index="31" slack="0"/>
  <constraint name="c33" index="32" slack="0"/>
  <constraint name="c34" index="33" slack="0"/>
  <constraint name="c35" index="34" slack="0"/>
  <constraint name="c36" index="35" slack="0"/>
  <constraint name="c37" index="36" slack="0"/>
  <constraint name="c38" index="37" slack="1"/>
  <constraint name="c39" index="38" slack="1"/>
  <constraint name="c40" index="39" slack="1"/>
  <constraint name="c41" index="40" slack="1"/>
  <constraint name="c42" index="41" slack="1"/>
  <constraint name="c43" index="42" slack="0"/>
  <constraint name="c44" index="43" slack="0"/>
  <constraint name="c45" index="44" slack="0"/>
  <constraint name="c46" index="45" slack="0"/>
  <constraint name="c47" index="46" slack="0"/>
  <constraint name="c48" index="47" slack="0"/>
  <constraint name="c49" index="48" slack="0"/>
  <constraint name="c50" index="49" slack="0"/>
  <constraint name="c51" index="50" slack="0"/>
  <constraint name="c52" index="51" slack="0"/>
  <constraint name="c53" index="52" slack="0"/>
  <constraint name="c54" index="53" slack="0"/>
  <constraint name="c55" index="54" slack="0"/>
  <constraint name="c56" index="55" slack="0"/>
  <constraint name="c57" index="56" slack="0"/>
  <constraint name="c58" index="57" slack="0"/>
  <constraint name="c59" index="58" slack="0"/>
  <constraint name="c60" index="59" slack="0"/>
  <constraint name="c61" index="60" slack="0"/>
  <constraint name="c62" index="61" slack="0"/>
  <constraint name="c63" index="62" slack="0"/>
  <constraint name="c64" index="63" slack="0"/>
  <constraint name="c65" index="64" slack="0"/>
  <constraint name="c66" index="65" slack="0"/>
  <constraint name="c67" index="66" slack="0"/>
  <constraint name="c68" index="67" slack="0"/>
  <constraint name="c69" index="68" slack="0"/>
  <constraint name="c70" index="69" slack="0"/>
  <constraint name="c71" index="70" slack="2"/>
  <constraint name="c72" index="71" slack="0"/>
  <constraint name="c73" index="72" slack="0"/>
  <constraint name="c74" index="73" slack="0"/>
  <constraint name="c75" index="74" slack="0"/>
  <constraint name="c76" index="75" slack="0"/>
  <constraint name="c77" index="76" slack="1"/>
  <constraint name="c78" index="77" slack="1"/>
  <constraint name="c79" index="78" slack="0"/>
  <constraint name="c80" index="79" slack="0"/>
  <constraint name="c81" index="80" slack="0"/>
  <constraint name="c82" index="81" slack="0"/>
  <constraint name="c83" index="82" slack="0"/>
  <constraint name="c84" index="83" slack="0"/>
  <constraint name="c85" index="84" slack="0"/>
  <constraint name="c86" index="85" slack="0"/>
  <constraint name="c87" index="86" slack="0"/>
  <constraint name="c88" index="87" slack="0"/>
  <constraint name="c89" index="88" slack="0"/>
  <constraint name="c90" index="89" slack="0"/>
  <constraint name="c91" index="90" slack="0"/>
  <constraint name="c92" index="91" slack="0"/>
  <constraint name="c93" index="92" slack="0"/>
  <constraint name="c94" index="93" slack="0"/>
  <constraint name="c95" index="94" slack="0"/>
  <constraint name="c96" index="95" slack="0"/>
  <constraint name="c97" index="96" slack="0"/>
  <constraint name="c98" index="97" slack="0"/>
  <constraint name="c99" index="98" slack="0"/>
  <constraint name="c100" index="99" slack="0"/>
  <constraint name="c101" index="100" slack="0"/>
  <constraint name="c103" index="101" slack="0"/>
  <constraint name="c104" index="102" slack="0"/>
  <constraint name="c105" index="103" slack="101"/>
  <constraint name="c106" index="104" slack="200"/>
  <constraint name="c107" index="105" slack="199"/>
  <constraint name="c108" index="106" slack="99"/>
  <constraint name="c109" index="107" slack="200"/>
  <constraint name="c110" index="108" slack="199"/>
  <constraint name="c111" index="109" slack="101"/>
  <constraint name="c112" index="110" slack="0"/>
  <constraint name="c113" index="111" slack="99"/>
  <constraint name="c114" index="112" slack="98"/>
  <constraint name="c115" index="113" slack="200"/>
  <constraint name="c116" index="114" slack="200"/>
  <constraint name="c117" index="115" slack="199"/>
  <constraint name="c118" index="116" slack="101"/>
  <constraint name="c119" index="117" slack="0"/>
  <constraint name="c120" index="118" slack="0"/>
  <constraint name="c121" index="119" slack="0"/>
  <constraint name="c122" index="120" slack="0"/>
  <constraint name="c123" index="121" slack="0"/>
  <constraint name="c124" index="122" slack="0"/>
  <constraint name="c125" index="123" slack="0"/>
  <constraint name="c126" index="124" slack="0"/>
  <constraint name="c127" index="125" slack="0"/>
  <constraint name="c128" index="126" slack="0"/>
  <constraint name="c129" index="127" slack="100"/>
  <constraint name="c130" index="128" slack="100"/>
  <constraint name="c131" index="129" slack="100"/>
  <constraint name="c132" index="130" slack="100"/>
  <constraint name="c133" index="131" slack="100"/>
  <constraint name="c134" index="132" slack="100"/>
  <constraint name="c135" index="133" slack="100"/>
  <constraint name="c136" index="134" slack="100"/>
  <constraint name="c137" index="135" slack="100"/>
  <constraint name="c138" index="136" slack="100"/>
 </linearConstraints>
 <variables>
  <variable name="absDiff8_1" index="0" value="0"/>
  <variable name="absDiff9_1" index="1" value="0"/>
  <variable name="absDiff10_1" index="2" value="0"/>
  <variable name="absDiff1_1" index="3" value="0"/>
  <variable name="absDiff2_1" index="4" value="0"/>
  <variable name="absDiff3_1" index="5" value="0"/>
  <variable name="absDiff4_1" index="6" value="0"/>
  <variable name="absDiff5_1" index="7" value="0"/>
  <variable name="absDiff6_1" index="8" value="0"/>
  <variable name="absDiff7_1" index="9" value="0"/>
  <variable name="xb11_1" index="10" value="0"/>
  <variable name="xb12_1" index="11" value="0"/>
  <variable name="xb13_1" index="12" value="-0"/>
  <variable name="xb14_1" index="13" value="0"/>
  <variable name="xb15_1" index="14" value="0"/>
  <variable name="xb16_1" index="15" value="0"/>
  <variable name="xb17_1" index="16" value="0"/>
  <variable name="xb18_1" index="17" value="-0"/>
  <variable name="xb19_1" index="18" value="0"/>
  <variable name="xb20_1" index="19" value="1"/>
  <variable name="xb21_1" index="20" value="0"/>
  <variable name="xb22_1" index="21" value="0"/>
  <variable name="xb23_1" index="22" value="-0"/>
  <variable name="xb24_1" index="23" value="0"/>
  <variable name="xb25_1" index="24" value="0"/>
  <variable name="xb26_1" index="25" value="0"/>
  <variable name="xb27_1" index="26" value="0"/>
  <variable name="xb28_1" index="27" value="1"/>
  <variable name="xb29_1" index="28" value="1"/>
  <variable name="xb30_1" index="29" value="0"/>
  <variable name="xb8_1" index="30" value="-1"/>
  <variable name="xb9_1" index="31" value="-1"/>
  <variable name="xb10_1" index="32" value="1"/>
  <variable name="xb31_1" index="33" value="0"/>
  <variable name="xb1_1" index="34" value="-1"/>
  <variable name="xb32_1" index="35" value="0"/>
  <variable name="xb33_1" index="36" value="-0"/>
  <variable name="xb34_1" index="37" value="0"/>
  <variable name="xb35_1" index="38" value="1"/>
  <variable name="xb2_1" index="39" value="1"/>
  <variable name="xb36_1" index="40" value="1"/>
  <variable name="xb37_1" index="41" value="1"/>
  <variable name="xb38_1" index="42" value="0"/>
  <variable name="xb3_1" index="43" value="0"/>
  <variable name="xb39_1" index="44" value="0"/>
  <variable name="xb4_1" index="45" value="0"/>
  <variable name="xb40_1" index="46" value="0"/>
  <variable name="xb5_1" index="47" value="0"/>
  <variable name="xb41_1" index="48" value="0"/>
  <variable name="xb6_1" index="49" value="0"/>
  <variable name="xb42_1" index="50" value="0"/>
  <variable name="xb7_1" index="51" value="0"/>
  <variable name="xb43_1" index="52" value="1"/>
  <variable name="xb44_1" index="53" value="1"/>
  <variable name="xb45_1" index="54" value="1"/>
  <variable name="xb46_1" index="55" value="1"/>
  <variable name="xb47_1" index="56" value="0"/>
  <variable name="xb48_1" index="57" value="0"/>
  <variable name="xb49_1" index="58" value="-0"/>
  <variable name="xb50_1" index="59" value="-0"/>
  <variable name="xb51_1" index="60" value="0"/>
  <variable name="xb52_1" index="61" value="0"/>
  <variable name="xb53_1" index="62" value="0"/>
  <variable name="xb54_1" index="63" value="0"/>
  <variable name="B_a_1" index="64" value="-1"/>
  <variable name="B_d_1" index="65" value="1"/>
  <variable name="B_f_1" index="66" value="-0"/>
  <variable name="B_h_1" index="67" value="-0"/>
  <variable name="B_g_1" index="68" value="-0"/>
  <variable name="B_j_1" index="69" value="-0"/>
  <variable name="B_y_1" index="70" value="-0"/>
  <variable name="B_b_1" index="71" value="-0"/>
  <variable name="B_c_1" index="72" value="-0"/>
  <variable name="B_e_1" index="73" value="-0"/>
  <variable name="dist_a" index="74" value="0"/>
  <variable name="dist_c" index="75" value="1"/>
  <variable name="dist_b" index="76" value="100"/>
  <variable name="dist_e" index="77" value="100"/>
  <variable name="dist_d" index="78" value="0"/>
  <variable name="dist_f" index="79" value="0"/>
  <variable name="dist_h" index="80" value="1.0000000000000002"/>
  <variable name="dist_g" index="81" value="0"/>
  <variable name="dist_1" index="82" value="0"/>
  <variable name="dist_2" index="83" value="0"/>
  <variable name="dist_3" index="84" value="0"/>
  <variable name="dist_4" index="85" value="0"/>
  <variable name="dist_5" index="86" value="0"/>
  <variable name="dist_6" index="87" value="0"/>
  <variable name="dist_8" index="88" value="0"/>
  <variable name="dist_7" index="89" value="0"/>
  <variable name="dist_9" index="90" value="0"/>
  <variable name="dist_10" index="91" value="0"/>
 </variables>
</CPLEXSolution>
